Set parameter Username
Set parameter Threads to value 1
Academic license - for non-commercial use only - expires 2022-07-11
Set parameter TimeLimit to value 300
Gurobi Optimizer version 9.5.1 build v9.5.1rc2 (linux64)
Thread count: 2 physical cores, 4 logical processors, using up to 1 threads
Optimize a model with 880 rows, 820 columns and 3258 nonzeros
Model fingerprint: 0xb0457961
Variable types: 20 continuous, 800 integer (800 binary)
Coefficient statistics:
  Matrix range     [1e+00, 4e+02]
  Objective range  [4e+01, 4e+02]
  Bounds range     [1e+00, 1e+00]
  RHS range        [1e+00, 9e+02]
Presolve removed 637 rows and 536 columns
Presolve time: 0.24s
Presolved: 243 rows, 284 columns, 1496 nonzeros
Variable types: 17 continuous, 267 integer (267 binary)

Root relaxation: objective 3.299000e+03, 170 iterations, 0.00 seconds (0.00 work units)

    Nodes    |    Current Node    |     Objective Bounds      |     Work
 Expl Unexpl |  Obj  Depth IntInf | Incumbent    BestBd   Gap | It/Node Time

     0     0 3299.00000    0   24          - 3299.00000      -     -    0s
H    0     0                    3243.0000000 3299.00000  1.73%     -    0s
     0     0 3299.00000    0   29 3243.00000 3299.00000  1.73%     -    0s
     0     0 3299.00000    0   28 3243.00000 3299.00000  1.73%     -    0s
     0     0 3299.00000    0   15 3243.00000 3299.00000  1.73%     -    0s
     0     0 3299.00000    0   20 3243.00000 3299.00000  1.73%     -    0s
     0     0 3299.00000    0   22 3243.00000 3299.00000  1.73%     -    0s
     0     0 3299.00000    0   20 3243.00000 3299.00000  1.73%     -    0s
     0     0 3299.00000    0   20 3243.00000 3299.00000  1.73%     -    0s
     0     0 3299.00000    0   21 3243.00000 3299.00000  1.73%     -    0s
     0     0 3299.00000    0   23 3243.00000 3299.00000  1.73%     -    0s
     0     0 3299.00000    0   16 3243.00000 3299.00000  1.73%     -    0s
H    0     0                    3269.0000000 3299.00000  0.92%     -    0s
     0     0 3299.00000    0   23 3269.00000 3299.00000  0.92%     -    0s
     0     0 3299.00000    0   39 3269.00000 3299.00000  0.92%     -    0s
     0     0 3299.00000    0   35 3269.00000 3299.00000  0.92%     -    0s
     0     0 3299.00000    0   27 3269.00000 3299.00000  0.92%     -    0s
     0     0 3299.00000    0   26 3269.00000 3299.00000  0.92%     -    0s
     0     0 3299.00000    0   33 3269.00000 3299.00000  0.92%     -    0s
     0     0 3299.00000    0   32 3269.00000 3299.00000  0.92%     -    0s
     0     0 3299.00000    0   24 3269.00000 3299.00000  0.92%     -    0s
     0     0 3299.00000    0   26 3269.00000 3299.00000  0.92%     -    0s
     0     0 3299.00000    0   21 3269.00000 3299.00000  0.92%     -    0s
     0     0 3299.00000    0   21 3269.00000 3299.00000  0.92%     -    0s
     0     2 3299.00000    0   12 3269.00000 3299.00000  0.92%     -    0s
H   27    18                    3273.0000000 3299.00000  0.79%  17.9    0s

Cutting planes:
  Gomory: 1
  Flow cover: 1
  Relax-and-lift: 1

Explored 199 nodes (12809 simplex iterations) in 0.89 seconds (0.48 work units)
Thread count was 1 (of 4 available processors)

Solution count 3: 3273 3269 3243 

Optimal solution found (tolerance 1.00e-04)
Best objective 3.273000000000e+03, best bound 3.273000000000e+03, gap 0.0000%
